49 58
43 6
97 16
31 33
7 95
61 12
14 10
83 2
36 13
50 52
89 5
25 62
89 41
20 23
24 36
98 88
93 74
85 95
57 76
96 98
90 78
87 77
76 67
97 77
3 57
45 0
36 55
89 74
35 53
92 93
57 28
32 1
77 2
7 22
49 48
68 49
39 4
33 15
68 54
70 33
65 35
4 46
84 85
12 31
11 84
10 7
71 54
65 4
6 38
39 45
62 91
81 30
89 18
92 53
83 36
20 79
26 52
43 39
61 9
23 27
73 5
10 9
21 50
20 80
